N = 155;
M = 387;
Edge_Start = [1, 1, 1, 2, 2, 2, 3, 3, 3, 3, 4, 4, 5, 5, 5, 6, 6, 6, 6, 7, 7, 7, 8, 9, 9, 9, 9, 10, 10, 10, 11, 11, 11, 12, 12, 12, 13, 13, 14, 14, 14, 15, 16, 16, 17, 17, 17, 18, 18, 18, 19, 20, 20, 20, 21, 21, 22, 22, 22, 23, 23, 24, 24, 24, 24, 25, 25, 25, 26, 27, 28, 28, 28, 29, 30, 30, 30, 31, 32, 32, 33, 33, 33, 34, 34, 34, 35, 35, 36, 36, 36, 37, 37, 37, 38, 38, 39, 39, 39, 40, 40, 40, 41, 42, 42, 43, 43, 43, 44, 44, 45, 45, 45, 46, 46, 47, 47, 48, 48, 48, 49, 49, 49, 50, 50, 51, 51, 52, 52, 52, 53, 53, 53, 54, 54, 55, 55, 55, 56, 56, 56, 56, 57, 57, 57, 58, 58, 59, 59, 59, 60, 60, 61, 61, 61, 61, 62, 62, 62, 63, 63, 64, 64, 64, 65, 65, 65, 65, 66, 66, 66, 67, 67, 67, 67, 68, 68, 68, 69, 69, 69, 70, 70, 70, 70, 71, 71, 71, 72, 72, 73, 73, 73, 73, 74, 74, 75, 76, 76, 76, 77, 78, 78, 78, 78, 79, 80, 80, 80, 81, 81, 81, 82, 82, 82, 83, 83, 83, 84, 84, 84, 85, 85, 85, 86, 87, 87, 88, 89, 89, 90, 91, 91, 91, 92, 92, 92, 93, 93, 94, 94, 94, 95, 95, 95, 95, 96, 96, 97, 97, 97, 98, 99, 99, 100, 101, 101, 102, 102, 103, 104, 104, 105, 105, 106, 106, 106, 107, 107, 107, 108, 108, 108, 109, 109, 109, 110, 110, 111, 111, 111, 112, 112, 112, 112, 113, 113, 114, 114, 114, 115, 115, 115, 116, 116, 116, 116, 117, 118, 118, 118, 119, 119, 119, 120, 120, 120, 121, 121, 121, 122, 122, 122, 123, 123, 124, 124, 124, 125, 126, 126, 127, 127, 127, 128, 128, 128, 129, 129, 129, 130, 130, 130, 131, 131, 131, 132, 132, 133, 133, 133, 134, 134, 135, 135, 136, 137, 137, 137, 138, 138, 139, 139, 140, 140, 141, 141, 141, 142, 143, 144, 145, 145, 145, 146, 147, 147, 147, 147, 148, 149, 149, 149, 150, 150, 150, 151, 151, 152, 152, 152, 152, 153, 153, 153, 154, 155];
Edge_End = [2, 25, 118, 1, 11, 107, 56, 57, 66, 67, 128, 134, 18, 28, 48, 18, 24, 147, 153, 24, 65, 133, 33, 70, 101, 105, 126, 65, 116, 133, 2, 54, 117, 14, 118, 119, 42, 105, 12, 71, 123, 13, 32, 40, 51, 96, 132, 5, 6, 39, 83, 43, 154, 155, 135, 139, 23, 25, 35, 22, 112, 6, 7, 55, 112, 1, 22, 149, 111, 39, 5, 53, 147, 30, 29, 115, 148, 33, 40, 145, 8, 31, 150, 62, 92, 94, 15, 93, 59, 73, 93, 62, 113, 115, 96, 130, 18, 27, 150, 16, 110, 144, 91, 23, 35, 4, 20, 108, 86, 127, 48, 80, 137, 49, 109, 49, 50, 5, 45, 52, 46, 47, 73, 47, 151, 17, 103, 48, 53, 57, 28, 52, 56, 11, 58, 24, 112, 153, 3, 53, 116, 129, 3, 52, 61, 54, 63, 36, 60, 109, 59, 109, 57, 64, 104, 140, 34, 37, 142, 58, 121, 61, 120, 141, 7, 10, 68, 70, 3, 70, 116, 3, 69, 104, 141, 65, 70, 112, 67, 72, 102, 9, 65, 66, 68, 14, 111, 119, 69, 114, 36, 49, 121, 138, 75, 94, 74, 78, 84, 120, 124, 76, 81, 95, 141, 110, 45, 124, 136, 78, 97, 114, 83, 99, 114, 19, 82, 87, 76, 95, 127, 92, 122, 152, 44, 83, 89, 152, 87, 126, 91, 41, 90, 152, 34, 85, 122, 15, 36, 34, 74, 98, 78, 84, 97, 100, 17, 38, 81, 95, 99, 94, 82, 97, 95, 9, 102, 69, 101, 51, 61, 67, 9, 42, 113, 115, 130, 2, 121, 123, 43, 106, 130, 46, 59, 60, 16, 79, 26, 71, 131, 23, 24, 55, 68, 37, 146, 72, 81, 82, 30, 43, 106, 10, 56, 66, 129, 11, 1, 12, 149, 12, 71, 131, 64, 76, 127, 63, 73, 107, 85, 92, 152, 14, 107, 77, 80, 125, 124, 9, 72, 44, 84, 120, 4, 108, 135, 56, 116, 147, 38, 106, 108, 111, 119, 149, 96, 143, 7, 10, 147, 135, 136, 128, 134, 137, 45, 139, 140, 73, 145, 21, 137, 61, 139, 64, 67, 78, 62, 132, 40, 32, 138, 151, 113, 6, 28, 129, 133, 30, 25, 118, 131, 33, 39, 153, 50, 145, 85, 88, 91, 122, 6, 55, 150, 20, 20];
L = [1, 1, 1, 1, 1, 1, 1, 1, 1, 1, 1, 1, 1, 1, 1, 1, 1, 1, 1, 1, 1, 1, 1, 1, 1, 1, 1, 1, 1, 1, 1, 1, 1, 1, 1, 1, 1, 1, 1, 1, 1, 1, 1, 1, 1, 1, 1, 1, 1, 1, 1, 1, 1, 1, 1, 1, 1, 1, 1, 1, 1, 1, 1, 1, 1, 1, 1, 1, 1, 1, 1, 1, 1, 1, 1, 1, 1, 1, 1, 1, 1, 1, 1, 1, 1, 1, 1, 1, 1, 1, 1, 1, 1, 1, 1, 1, 1, 1, 1, 1, 1, 1, 1, 1, 1, 1, 1, 1, 1, 1, 1, 1, 1, 1, 1, 1, 1, 1, 1, 1, 1, 1, 1, 1, 1, 1, 1, 1, 1, 1, 1, 1, 1, 1, 1, 1, 1, 1, 1, 1, 1, 1, 1, 1, 1, 1, 1, 1, 1, 1, 1, 1, 1, 1, 1, 1, 1, 1, 1, 1, 1, 1, 1, 1, 1, 1, 1, 1, 1, 1, 1, 1, 1, 1, 1, 1, 1, 1, 1, 1, 1, 1, 1, 1, 1, 1, 1, 1, 1, 1, 1, 1, 1, 1, 1, 1, 1, 1, 1, 1, 1, 1, 1, 1, 1, 1, 1, 1, 1, 1, 1, 1, 1, 1, 1, 1, 1, 1, 1, 1, 1, 1, 1, 1, 1, 1, 1, 1, 1, 1, 1, 1, 1, 1, 1, 1, 1, 1, 1, 1, 1, 1, 1, 1, 1, 1, 1, 1, 1, 1, 1, 1, 1, 1, 1, 1, 1, 1, 1, 1, 1, 1, 1, 1, 1, 1, 1, 1, 1, 1, 1, 1, 1, 1, 1, 1, 1, 1, 1, 1, 1, 1, 1, 1, 1, 1, 1, 1, 1, 1, 1, 1, 1, 1, 1, 1, 1, 1, 1, 1, 1, 1, 1, 1, 1, 1, 1, 1, 1, 1, 1, 1, 1, 1, 1, 1, 1, 1, 1, 1, 1, 1, 1, 1, 1, 1, 1, 1, 1, 1, 1, 1, 1, 1, 1, 1, 1, 1, 1, 1, 1, 1, 1, 1, 1, 1, 1, 1, 1, 1, 1, 1, 1, 1, 1, 1, 1, 1, 1, 1, 1, 1, 1, 1, 1, 1, 1, 1, 1, 1, 1, 1, 1, 1, 1, 1, 1, 1, 1, 1, 1, 1, 1, 1, 1, 1, 1];
T = [1, 1, 1, 1, 1, 1, 1, 1, 1, 1, 1, 1, 1, 1, 1, 1, 1, 1, 1, 1, 1, 1, 1, 1, 1, 1, 1, 1, 1, 1, 1, 1, 1, 1, 1, 1, 1, 1, 1, 1, 1, 1, 1, 1, 1, 1, 1, 1, 1, 1, 1, 1, 1, 1, 1, 1, 1, 1, 1, 1, 1, 1, 1, 1, 1, 1, 1, 1, 1, 1, 1, 1, 1, 1, 1, 1, 1, 1, 1, 1, 1, 1, 1, 1, 1, 1, 1, 1, 1, 1, 1, 1, 1, 1, 1, 1, 1, 1, 1, 1, 1, 1, 1, 1, 1, 1, 1, 1, 1, 1, 1, 1, 1, 1, 1, 1, 1, 1, 1, 1, 1, 1, 1, 1, 1, 1, 1, 1, 1, 1, 1, 1, 1, 1, 1, 1, 1, 1, 1, 1, 1, 1, 1, 1, 1, 1, 1, 1, 1, 1, 1, 1, 1, 1, 1, 1, 1, 1, 1, 1, 1, 1, 1, 1, 1, 1, 1, 1, 1, 1, 1, 1, 1, 1, 1, 1, 1, 1, 1, 1, 1, 1, 1, 1, 1, 1, 1, 1, 1, 1, 1, 1, 1, 1, 1, 1, 1, 1, 1, 1, 1, 1, 1, 1, 1, 1, 1, 1, 1, 1, 1, 1, 1, 1, 1, 1, 1, 1, 1, 1, 1, 1, 1, 1, 1, 1, 1, 1, 1, 1, 1, 1, 1, 1, 1, 1, 1, 1, 1, 1, 1, 1, 1, 1, 1, 1, 1, 1, 1, 1, 1, 1, 1, 1, 1, 1, 1, 1, 1, 1, 1, 1, 1, 1, 1, 1, 1, 1, 1, 1, 1, 1, 1, 1, 1, 1, 1, 1, 1, 1, 1, 1, 1, 1, 1, 1, 1, 1, 1, 1, 1, 1, 1, 1, 1, 1, 1, 1, 1, 1, 1, 1, 1, 1, 1, 1, 1, 1, 1, 1, 1, 1, 1, 1, 1, 1, 1, 1, 1, 1, 1, 1, 1, 1, 1, 1, 1, 1, 1, 1, 1, 1, 1, 1, 1, 1, 1, 1, 1, 1, 1, 1, 1, 1, 1, 1, 1, 1, 1, 1, 1, 1, 1, 1, 1, 1, 1, 1, 1, 1, 1, 1, 1, 1, 1, 1, 1, 1, 1, 1, 1, 1, 1, 1, 1, 1, 1, 1, 1, 1, 1, 1, 1, 1, 1, 1, 1];
Lower_Bound = [4, 5, 4, 12, 4, 2, 2, 5, 3, 3, 6, 6, 5, 7, 4, 11, 16, 3, 9, 14, 9, 2, 1, 1, 3, 7, 5, 4, 16, 15, 5, 9, 4, 17, 3, 5, 15, 14, 4, 10, 22, 5, 13, 10, 6, 8, 8, 5, 7, 9, 17, 6, 5, 7, 1, 5, 5, 8, 6, 7, 6, 16, 8, 7, 2, 3, 5, 1, 6, 2, 7, 5, 6, 19, 20, 8, 9, 7, 12, 7, 7, 7, 8, 9, 19, 11, 9, 21, 10, 22, 21, 18, 4, 18, 8, 15, 8, 19, 8, 9, 4, 5, 18, 6, 4, 13, 6, 12, 7, 11, 6, 0, 14, 6, 14, 4, 7, 5, 6, 8, 7, 19, 7, 8, 9, 4, 9, 11, 4, 13, 5, 17, 3, 11, 10, 8, 7, 7, 8, 7, 6, 17, 18, 11, 8, 15, 3, 16, 4, 3, 9, 20, 2, 15, 15];
Upper_Bound = [5, 6, 5, 12, 5, 3, 3, 5, 3, 3, 6, 7, 5, 7, 5, 11, 16, 4, 10, 14, 10, 2, 2, 1, 3, 7, 6, 4, 16, 16, 5, 10, 5, 17, 3, 5, 15, 14, 5, 11, 23, 6, 13, 10, 6, 8, 9, 6, 7, 9, 18, 6, 5, 7, 2, 6, 6, 8, 6, 7, 7, 17, 9, 8, 2, 4, 5, 1, 6, 3, 8, 6, 7, 20, 21, 9, 10, 7, 12, 7, 8, 7, 9, 9, 20, 12, 10, 22, 10, 23, 21, 18, 4, 19, 8, 16, 8, 19, 9, 9, 4, 5, 18, 7, 5, 14, 6, 12, 8, 12, 7, 0, 14, 6, 14, 5, 7, 5, 6, 9, 8, 20, 7, 9, 9, 5, 10, 11, 5, 14, 6, 17, 3, 11, 11, 8, 8, 8, 8, 8, 6, 18, 18, 11, 9, 15, 4, 16, 5, 4, 10, 20, 3, 16, 15];
Start = 112;
End = 88;
Time = 22;
